instances/knapsack/discrete_knapsack_uncertainty/knapsack_120_6.lp
\ Model knapsack_120_6
\ LP format - for model browsing. Use MPS format to capture full model detail.
\ Signature: 0x89f048c0c90eaa9
Minimize
  - 83 x[0] - 84 x[1] - 5 x[2] - 21 x[3] - 11 x[4] - 86 x[5] - 39 x[6]
   - 41 x[7] - 52 x[8] - 28 x[9] - 76 x[10] - 28 x[11] - 8 x[12] - 87 x[13]
   - 20 x[14] - 21 x[15] - 23 x[16] - 39 x[17] - 68 x[18] - 27 x[19]
   - 43 x[20] - 36 x[21] - 81 x[22] - 37 x[23] - 98 x[24] - 4 x[25]
   - 37 x[26] - 69 x[27] - 7 x[28] - 38 x[29] - 2 x[30] - 37 x[31]
   - 81 x[32] - 72 x[33] - 21 x[34] - 42 x[35] - 74 x[36] - 28 x[37]
   - 88 x[38] - 81 x[39] - 93 x[40] - 63 x[41] - 19 x[42] - 32 x[43]
   - 32 x[44] - 64 x[45] - 86 x[46] - 2 x[47] - 94 x[48] - 99 x[49]
   - 80 x[50] - 36 x[51] - 20 x[52] - 26 x[53] - 97 x[54] - 79 x[55]
   - 32 x[56] - 17 x[57] - 5 x[58] - 76 x[59] - 69 x[60] - 67 x[61]
   - 19 x[62] - 47 x[63] - 80 x[64] - 14 x[65] - 46 x[66] - 55 x[67]
   - 10 x[68] - 55 x[69] - 22 x[70] - 20 x[71] - 50 x[72] - 79 x[73]
   - 8 x[74] - 47 x[75] - 23 x[76] - 6 x[77] - 69 x[78] - 37 x[79]
   - 12 x[80] - 83 x[81] - 87 x[82] - 51 x[83] - 46 x[84] - 22 x[85]
   - 7 x[86] - 84 x[87] - 5 x[88] - 76 x[89] - 95 x[90] - 11 x[91]
   - 79 x[92] - 98 x[93] - 21 x[94] - 28 x[95] - 42 x[96] - 21 x[97]
   - 66 x[98] - 42 x[99] - 38 x[100] - 59 x[101] - 76 x[102] - 55 x[103]
   - 16 x[104] - 40 x[105] - 87 x[106] - 62 x[107] - 87 x[108] - 90 x[109]
   - 79 x[110] - 31 x[111] - 99 x[112] - 97 x[113] - 63 x[114] - 18 x[115]
   - 64 x[116] - 46 x[117] - 91 x[118] - 36 x[119]
Subject To
 primal_upper: 9 x[0] + 9 x[1] + 3 x[2] + 88 x[3] + 61 x[4] + 55 x[5]
   + 50 x[6] + x[7] + 18 x[8] + 15 x[9] + 37 x[10] + 80 x[11] + 49 x[12]
   + 53 x[13] + 22 x[14] + 22 x[15] + 90 x[16] + 85 x[17] + 62 x[18]
   + 91 x[19] + 78 x[20] + 77 x[21] + 73 x[22] + 48 x[23] + 18 x[24]
   + 85 x[25] + 83 x[26] + 33 x[27] + 67 x[28] + 36 x[29] + 23 x[30]
   + 41 x[31] + 21 x[32] + 90 x[33] + 33 x[34] + 70 x[35] + 81 x[36]
   + 98 x[37] + x[38] + 8 x[39] + 24 x[40] + 35 x[41] + 51 x[42] + 79 x[43]
   + 36 x[44] + 40 x[45] + 79 x[46] + 39 x[47] + 32 x[48] + 69 x[49]
   + 56 x[50] + 77 x[51] + 26 x[52] + 49 x[53] + 70 x[54] + 41 x[55]
   + 78 x[56] + 68 x[57] + 5 x[58] + 31 x[59] + 34 x[60] + 88 x[61]
   + 53 x[62] + 72 x[63] + 57 x[64] + 41 x[65] + 34 x[66] + 76 x[67]
   + 53 x[68] + 75 x[69] + 27 x[70] + 71 x[71] + 3 x[72] + 72 x[73]
   + 97 x[74] + 22 x[75] + 40 x[76] + 100 x[77] + 18 x[78] + 32 x[79]
   + 35 x[80] + 15 x[81] + 88 x[82] + 11 x[83] + 39 x[84] + 39 x[85]
   + 61 x[86] + 17 x[87] + 79 x[88] + 36 x[89] + 22 x[90] + 94 x[91]
   + 26 x[92] + 13 x[93] + 93 x[94] + 10 x[95] + 46 x[96] + 58 x[97]
   + 17 x[98] + 89 x[99] + 82 x[100] + 29 x[101] + 55 x[102] + 53 x[103]
   + 90 x[104] + 47 x[105] + 40 x[106] + 36 x[107] + 80 x[108] + 2 x[109]
   + 64 x[110] + 60 x[111] + 46 x[112] + 78 x[113] + 62 x[114] + 80 x[115]
   + 84 x[116] + 50 x[117] + 90 x[118] + 62 x[119] + 0.9 r[0] + 0.9 r[1]
   + 0.3 r[2] + 8.8 r[3] + 6.1 r[4] + 5.5 r[5] + 5 r[6] + 0.1 r[7]
   + 1.8 r[8] + 1.5 r[9] + 3.7 r[10] + 8 r[11] + 4.9 r[12] + 5.3 r[13]
   + 2.2 r[14] + 2.2 r[15] + 9 r[16] + 8.5 r[17] + 6.2 r[18] + 9.1 r[19]
   + 7.8 r[20] + 7.7 r[21] + 7.3 r[22] + 4.8 r[23] + 1.8 r[24] + 8.5 r[25]
   + 8.3 r[26] + 3.3 r[27] + 6.7 r[28] + 3.6 r[29] + 2.3 r[30] + 4.1 r[31]
   + 2.1 r[32] + 9 r[33] + 3.3 r[34] + 7 r[35] + 8.1 r[36] + 9.8 r[37]
   + 0.1 r[38] + 0.8 r[39] + 2.4 r[40] + 3.5 r[41] + 5.1 r[42] + 7.9 r[43]
   + 3.6 r[44] + 4 r[45] + 7.9 r[46] + 3.9 r[47] + 3.2 r[48] + 6.9 r[49]
   + 5.6 r[50] + 7.7 r[51] + 2.6 r[52] + 4.9 r[53] + 7 r[54] + 4.1 r[55]
   + 7.8 r[56] + 6.8 r[57] + 0.5 r[58] + 3.1 r[59] + 3.4 r[60] + 8.8 r[61]
   + 5.3 r[62] + 7.2 r[63] + 5.7 r[64] + 4.1 r[65] + 3.4 r[66] + 7.6 r[67]
   + 5.3 r[68] + 7.5 r[69] + 2.7 r[70] + 7.1 r[71] + 0.3 r[72] + 7.2 r[73]
   + 9.7 r[74] + 2.2 r[75] + 4 r[76] + 10 r[77] + 1.8 r[78] + 3.2 r[79]
   + 3.5 r[80] + 1.5 r[81] + 8.8 r[82] + 1.1 r[83] + 3.9 r[84] + 3.9 r[85]
   + 6.1 r[86] + 1.7 r[87] + 7.9 r[88] + 3.6 r[89] + 2.2 r[90] + 9.4 r[91]
   + 2.6 r[92] + 1.3 r[93] + 9.3 r[94] + r[95] + 4.6 r[96] + 5.8 r[97]
   + 1.7 r[98] + 8.9 r[99] + 8.2 r[100] + 2.9 r[101] + 5.5 r[102]
   + 5.3 r[103] + 9 r[104] + 4.7 r[105] + 4 r[106] + 3.6 r[107] + 8 r[108]
   + 0.2 r[109] + 6.4 r[110] + 6 r[111] + 4.6 r[112] + 7.8 r[113]
   + 6.2 r[114] + 8 r[115] + 8.4 r[116] + 5 r[117] + 9 r[118] + 6.2 r[119]
   <= 580
 primal_lower: 4.848098129490668 x[0] + 3.692825569087279 x[1]
   + 3.071898399570087 x[2] + 1.954830923259915 x[3]
   + 4.601385116177327 x[4] + 4.528997425119218 x[5]
   + 4.368793820522943 x[6] + 2.601739174520959 x[7]
   + 2.315830143754243 x[8] + 3.639160262121495 x[9]
   + 2.17591173356519 x[10] + 0.982972523695806 x[11]
   + 3.398149900253657 x[12] + 1.321235877454583 x[13]
   + 1.999655582589086 x[14] + 1.015676992772465 x[15]
   + 4.19869898476642 x[16] + 0.0205243780740017 x[17]
   + 3.767635610813151 x[18] + 1.01867188448289 x[19]
   + 4.541782016002409 x[20] + 2.964099190658553 x[21]
   + 0.676018117528106 x[22] + 0.0525510375426114 x[23]
   + 0.8733552886112963 x[24] + 2.988509571417681 x[25]
   + 2.826742066875455 x[26] + 3.2656567675608 x[27]
   + 4.798659726009543 x[28] + 2.500528475735206 x[29]
   + 2.339900848873683 x[30] + 3.826968246368829 x[31]
   + 2.656368575093678 x[32] + 2.751565212343491 x[33]
   + 2.550856986464641 x[34] + 4.024348833190534 x[35]
   + 3.474562484294009 x[36] + 3.565951323618049 x[37]
   + 1.597287472683158 x[38] + 2.159652800184428 x[39]
   + 2.639263393659315 x[40] + 2.584476497615972 x[41]
   + 0.1856636124088741 x[42] + 0.3900899912529717 x[43]
   + 2.677042631546326 x[44] + 0.512713098563447 x[45]
   + 0.618329328286373 x[46] + 4.223456684098529 x[47]
   + 0.8217807990191954 x[48] + 3.909386637558983 x[49]
   + 3.252897221377277 x[50] + 2.536077873076805 x[51]
   + 3.670872044834359 x[52] + 2.432171623003379 x[53]
   + 3.104670072858203 x[54] + 2.182158438801281 x[55]
   + 2.679248104819783 x[56] + 4.595059079693417 x[57]
   + 0.50261571938012 x[58] + 3.707829232563614 x[59]
   + 0.396146737824582 x[60] + 2.342789026657128 x[61]
   + 0.1444149981825153 x[62] + 3.009052069912149 x[63]
   + 0.3126701234565477 x[64] + 4.658997957724876 x[65]
   + 3.322654332982712 x[66] + 4.127898510149008 x[67]
   + 3.506034614027216 x[68] + 0.6007220503889361 x[69]
   + 2.037808107931569 x[70] + 1.779279977828939 x[71]
   + 3.173607300621735 x[72] + 1.978088911286571 x[73]
   + 2.102272597817379 x[74] + 0.7445716333911632 x[75]
   + 3.412614185000995 x[76] + 1.992070239894726 x[77]
   + 1.362118681884631 x[78] + 4.149459346625233 x[79]
   + 2.098235086302733 x[80] + 3.21079704631229 x[81]
   + 1.508068849964844 x[82] + 4.282454533156125 x[83]
   + 1.158750160308891 x[84] + 2.779454438073291 x[85]
   + 3.40302706190163 x[86] + 1.645961156427459 x[87]
   + 1.526849051528239 x[88] + 1.281461328714932 x[89]
   + 1.957906805135796 x[90] + 2.275642144694935 x[91]
   + 1.842598657875439 x[92] + 4.204957101641694 x[93]
   + 3.648877845380468 x[94] + 0.6617238162320763 x[95]
   + 3.73619321077132 x[96] + 3.466283461003445 x[97]
   + 4.136590104817859 x[98] + 0.7228061457659271 x[99]
   + 4.357707316558494 x[100] + 2.74592392524586 x[101]
   + 0.1406429237647917 x[102] + 0.0922696784122056 x[103]
   + 0.4282059818951263 x[104] + 1.036861288225259 x[105]
   + 3.487001381433757 x[106] + 1.012149737367374 x[107]
   + 2.34771551394134 x[108] + 2.45745820367119 x[109]
   + 2.565869558003845 x[110] + 0.6789010914569064 x[111]
   + 4.717990387698191 x[112] + 0.8899321226685341 x[113]
   + 4.024064851860062 x[114] + 0.3112518690999589 x[115]
   + 2.9779983007178 x[116] + 2.032796535415542 x[117]
   + 4.194746347242083 x[118] + 1.869640962063347 x[119] + 6 u[0] + 23 u[1]
   + 13 u[2] + 90 u[3] + 59 u[4] + 12 u[5] + 100 u[6] + 82 u[7] + 60 u[8]
   + 41 u[9] + 66 u[10] + 62 u[11] + 39 u[12] + 87 u[13] + 47 u[14]
   + 59 u[15] + 72 u[16] + 19 u[17] + 68 u[18] + u[19] + 72 u[20]
   + 54 u[21] + 99 u[22] + 85 u[23] + 55 u[24] + 91 u[25] + 85 u[26]
   + 14 u[27] + 20 u[28] + 6 u[29] + 88 u[30] + 6 u[31] + 34 u[32]
   + 24 u[33] + 87 u[34] + 4 u[35] + 55 u[36] + 75 u[37] + 7 u[38]
   + 9 u[39] + 50 u[40] + 80 u[41] + 73 u[42] + 24 u[43] + 42 u[44]
   + 97 u[45] + 64 u[46] + 84 u[47] + 30 u[48] + 31 u[49] + 77 u[50]
   + 75 u[51] + 20 u[52] + 83 u[53] + 71 u[54] + 82 u[55] + 72 u[56]
   + 33 u[57] + 51 u[58] + 97 u[59] + 79 u[60] + 77 u[61] + 54 u[62]
   + 89 u[63] + 54 u[64] + 43 u[65] + 35 u[66] + 17 u[67] + 19 u[68]
   + 8 u[69] + 40 u[70] + 4 u[71] + 93 u[72] + 6 u[73] + 78 u[74]
   + 83 u[75] + 57 u[76] + 50 u[77] + 7 u[78] + 69 u[79] + 8 u[80]
   + 92 u[81] + 77 u[82] + 16 u[83] + 100 u[84] + 88 u[85] + 66 u[86]
   + 3 u[87] + 73 u[88] + 42 u[89] + 51 u[90] + 3 u[91] + 35 u[92]
   + 58 u[93] + 47 u[94] + 16 u[95] + 72 u[96] + 43 u[97] + 15 u[98]
   + 3 u[99] + 44 u[100] + 23 u[101] + 9 u[102] + 99 u[103] + 36 u[104]
   + 93 u[105] + 90 u[106] + 37 u[107] + 29 u[108] + 96 u[109] + 49 u[110]
   + 94 u[111] + 64 u[112] + 12 u[113] + 96 u[114] + 85 u[115] + 62 u[116]
   + 16 u[117] + 44 u[118] + 51 u[119] <= 72651
 mccormick1[0]: - u[0] + r[0] <= 0
 mccormick1[1]: - u[1] + r[1] <= 0
 mccormick1[2]: - u[2] + r[2] <= 0
 mccormick1[3]: - u[3] + r[3] <= 0
 mccormick1[4]: - u[4] + r[4] <= 0
 mccormick1[5]: - u[5] + r[5] <= 0
 mccormick1[6]: - u[6] + r[6] <= 0
 mccormick1[7]: - u[7] + r[7] <= 0
 mccormick1[8]: - u[8] + r[8] <= 0
 mccormick1[9]: - u[9] + r[9] <= 0
 mccormick1[10]: - u[10] + r[10] <= 0
 mccormick1[11]: - u[11] + r[11] <= 0
 mccormick1[12]: - u[12] + r[12] <= 0
 mccormick1[13]: - u[13] + r[13] <= 0
 mccormick1[14]: - u[14] + r[14] <= 0
 mccormick1[15]: - u[15] + r[15] <= 0
 mccormick1[16]: - u[16] + r[16] <= 0
 mccormick1[17]: - u[17] + r[17] <= 0
 mccormick1[18]: - u[18] + r[18] <= 0
 mccormick1[19]: - u[19] + r[19] <= 0
 mccormick1[20]: - u[20] + r[20] <= 0
 mccormick1[21]: - u[21] + r[21] <= 0
 mccormick1[22]: - u[22] + r[22] <= 0
 mccormick1[23]: - u[23] + r[23] <= 0
 mccormick1[24]: - u[24] + r[24] <= 0
 mccormick1[25]: - u[25] + r[25] <= 0
 mccormick1[26]: - u[26] + r[26] <= 0
 mccormick1[27]: - u[27] + r[27] <= 0
 mccormick1[28]: - u[28] + r[28] <= 0
 mccormick1[29]: - u[29] + r[29] <= 0
 mccormick1[30]: - u[30] + r[30] <= 0
 mccormick1[31]: - u[31] + r[31] <= 0
 mccormick1[32]: - u[32] + r[32] <= 0
 mccormick1[33]: - u[33] + r[33] <= 0
 mccormick1[34]: - u[34] + r[34] <= 0
 mccormick1[35]: - u[35] + r[35] <= 0
 mccormick1[36]: - u[36] + r[36] <= 0
 mccormick1[37]: - u[37] + r[37] <= 0
 mccormick1[38]: - u[38] + r[38] <= 0
 mccormick1[39]: - u[39] + r[39] <= 0
 mccormick1[40]: - u[40] + r[40] <= 0
 mccormick1[41]: - u[41] + r[41] <= 0
 mccormick1[42]: - u[42] + r[42] <= 0
 mccormick1[43]: - u[43] + r[43] <= 0
 mccormick1[44]: - u[44] + r[44] <= 0
 mccormick1[45]: - u[45] + r[45] <= 0
 mccormick1[46]: - u[46] + r[46] <= 0
 mccormick1[47]: - u[47] + r[47] <= 0
 mccormick1[48]: - u[48] + r[48] <= 0
 mccormick1[49]: - u[49] + r[49] <= 0
 mccormick1[50]: - u[50] + r[50] <= 0
 mccormick1[51]: - u[51] + r[51] <= 0
 mccormick1[52]: - u[52] + r[52] <= 0
 mccormick1[53]: - u[53] + r[53] <= 0
 mccormick1[54]: - u[54] + r[54] <= 0
 mccormick1[55]: - u[55] + r[55] <= 0
 mccormick1[56]: - u[56] + r[56] <= 0
 mccormick1[57]: - u[57] + r[57] <= 0
 mccormick1[58]: - u[58] + r[58] <= 0
 mccormick1[59]: - u[59] + r[59] <= 0
 mccormick1[60]: - u[60] + r[60] <= 0
 mccormick1[61]: - u[61] + r[61] <= 0
 mccormick1[62]: - u[62] + r[62] <= 0
 mccormick1[63]: - u[63] + r[63] <= 0
 mccormick1[64]: - u[64] + r[64] <= 0
 mccormick1[65]: - u[65] + r[65] <= 0
 mccormick1[66]: - u[66] + r[66] <= 0
 mccormick1[67]: - u[67] + r[67] <= 0
 mccormick1[68]: - u[68] + r[68] <= 0
 mccormick1[69]: - u[69] + r[69] <= 0
 mccormick1[70]: - u[70] + r[70] <= 0
 mccormick1[71]: - u[71] + r[71] <= 0
 mccormick1[72]: - u[72] + r[72] <= 0
 mccormick1[73]: - u[73] + r[73] <= 0
 mccormick1[74]: - u[74] + r[74] <= 0
 mccormick1[75]: - u[75] + r[75] <= 0
 mccormick1[76]: - u[76] + r[76] <= 0
 mccormick1[77]: - u[77] + r[77] <= 0
 mccormick1[78]: - u[78] + r[78] <= 0
 mccormick1[79]: - u[79] + r[79] <= 0
 mccormick1[80]: - u[80] + r[80] <= 0
 mccormick1[81]: - u[81] + r[81] <= 0
 mccormick1[82]: - u[82] + r[82] <= 0
 mccormick1[83]: - u[83] + r[83] <= 0
 mccormick1[84]: - u[84] + r[84] <= 0
 mccormick1[85]: - u[85] + r[85] <= 0
 mccormick1[86]: - u[86] + r[86] <= 0
 mccormick1[87]: - u[87] + r[87] <= 0
 mccormick1[88]: - u[88] + r[88] <= 0
 mccormick1[89]: - u[89] + r[89] <= 0
 mccormick1[90]: - u[90] + r[90] <= 0
 mccormick1[91]: - u[91] + r[91] <= 0
 mccormick1[92]: - u[92] + r[92] <= 0
 mccormick1[93]: - u[93] + r[93] <= 0
 mccormick1[94]: - u[94] + r[94] <= 0
 mccormick1[95]: - u[95] + r[95] <= 0
 mccormick1[96]: - u[96] + r[96] <= 0
 mccormick1[97]: - u[97] + r[97] <= 0
 mccormick1[98]: - u[98] + r[98] <= 0
 mccormick1[99]: - u[99] + r[99] <= 0
 mccormick1[100]: - u[100] + r[100] <= 0
 mccormick1[101]: - u[101] + r[101] <= 0
 mccormick1[102]: - u[102] + r[102] <= 0
 mccormick1[103]: - u[103] + r[103] <= 0
 mccormick1[104]: - u[104] + r[104] <= 0
 mccormick1[105]: - u[105] + r[105] <= 0
 mccormick1[106]: - u[106] + r[106] <= 0
 mccormick1[107]: - u[107] + r[107] <= 0
 mccormick1[108]: - u[108] + r[108] <= 0
 mccormick1[109]: - u[109] + r[109] <= 0
 mccormick1[110]: - u[110] + r[110] <= 0
 mccormick1[111]: - u[111] + r[111] <= 0
 mccormick1[112]: - u[112] + r[112] <= 0
 mccormick1[113]: - u[113] + r[113] <= 0
 mccormick1[114]: - u[114] + r[114] <= 0
 mccormick1[115]: - u[115] + r[115] <= 0
 mccormick1[116]: - u[116] + r[116] <= 0
 mccormick1[117]: - u[117] + r[117] <= 0
 mccormick1[118]: - u[118] + r[118] <= 0
 mccormick1[119]: - u[119] + r[119] <= 0
 mccormick2[0]: - x[0] + r[0] <= 0
 mccormick2[1]: - x[1] + r[1] <= 0
 mccormick2[2]: - x[2] + r[2] <= 0
 mccormick2[3]: - x[3] + r[3] <= 0
 mccormick2[4]: - x[4] + r[4] <= 0
 mccormick2[5]: - x[5] + r[5] <= 0
 mccormick2[6]: - x[6] + r[6] <= 0
 mccormick2[7]: - x[7] + r[7] <= 0
 mccormick2[8]: - x[8] + r[8] <= 0
 mccormick2[9]: - x[9] + r[9] <= 0
 mccormick2[10]: - x[10] + r[10] <= 0
 mccormick2[11]: - x[11] + r[11] <= 0
 mccormick2[12]: - x[12] + r[12] <= 0
 mccormick2[13]: - x[13] + r[13] <= 0
 mccormick2[14]: - x[14] + r[14] <= 0
 mccormick2[15]: - x[15] + r[15] <= 0
 mccormick2[16]: - x[16] + r[16] <= 0
 mccormick2[17]: - x[17] + r[17] <= 0
 mccormick2[18]: - x[18] + r[18] <= 0
 mccormick2[19]: - x[19] + r[19] <= 0
 mccormick2[20]: - x[20] + r[20] <= 0
 mccormick2[21]: - x[21] + r[21] <= 0
 mccormick2[22]: - x[22] + r[22] <= 0
 mccormick2[23]: - x[23] + r[23] <= 0
 mccormick2[24]: - x[24] + r[24] <= 0
 mccormick2[25]: - x[25] + r[25] <= 0
 mccormick2[26]: - x[26] + r[26] <= 0
 mccormick2[27]: - x[27] + r[27] <= 0
 mccormick2[28]: - x[28] + r[28] <= 0
 mccormick2[29]: - x[29] + r[29] <= 0
 mccormick2[30]: - x[30] + r[30] <= 0
 mccormick2[31]: - x[31] + r[31] <= 0
 mccormick2[32]: - x[32] + r[32] <= 0
 mccormick2[33]: - x[33] + r[33] <= 0
 mccormick2[34]: - x[34] + r[34] <= 0
 mccormick2[35]: - x[35] + r[35] <= 0
 mccormick2[36]: - x[36] + r[36] <= 0
 mccormick2[37]: - x[37] + r[37] <= 0
 mccormick2[38]: - x[38] + r[38] <= 0
 mccormick2[39]: - x[39] + r[39] <= 0
 mccormick2[40]: - x[40] + r[40] <= 0
 mccormick2[41]: - x[41] + r[41] <= 0
 mccormick2[42]: - x[42] + r[42] <= 0
 mccormick2[43]: - x[43] + r[43] <= 0
 mccormick2[44]: - x[44] + r[44] <= 0
 mccormick2[45]: - x[45] + r[45] <= 0
 mccormick2[46]: - x[46] + r[46] <= 0
 mccormick2[47]: - x[47] + r[47] <= 0
 mccormick2[48]: - x[48] + r[48] <= 0
 mccormick2[49]: - x[49] + r[49] <= 0
 mccormick2[50]: - x[50] + r[50] <= 0
 mccormick2[51]: - x[51] + r[51] <= 0
 mccormick2[52]: - x[52] + r[52] <= 0
 mccormick2[53]: - x[53] + r[53] <= 0
 mccormick2[54]: - x[54] + r[54] <= 0
 mccormick2[55]: - x[55] + r[55] <= 0
 mccormick2[56]: - x[56] + r[56] <= 0
 mccormick2[57]: - x[57] + r[57] <= 0
 mccormick2[58]: - x[58] + r[58] <= 0
 mccormick2[59]: - x[59] + r[59] <= 0
 mccormick2[60]: - x[60] + r[60] <= 0
 mccormick2[61]: - x[61] + r[61] <= 0
 mccormick2[62]: - x[62] + r[62] <= 0
 mccormick2[63]: - x[63] + r[63] <= 0
 mccormick2[64]: - x[64] + r[64] <= 0
 mccormick2[65]: - x[65] + r[65] <= 0
 mccormick2[66]: - x[66] + r[66] <= 0
 mccormick2[67]: - x[67] + r[67] <= 0
 mccormick2[68]: - x[68] + r[68] <= 0
 mccormick2[69]: - x[69] + r[69] <= 0
 mccormick2[70]: - x[70] + r[70] <= 0
 mccormick2[71]: - x[71] + r[71] <= 0
 mccormick2[72]: - x[72] + r[72] <= 0
 mccormick2[73]: - x[73] + r[73] <= 0
 mccormick2[74]: - x[74] + r[74] <= 0
 mccormick2[75]: - x[75] + r[75] <= 0
 mccormick2[76]: - x[76] + r[76] <= 0
 mccormick2[77]: - x[77] + r[77] <= 0
 mccormick2[78]: - x[78] + r[78] <= 0
 mccormick2[79]: - x[79] + r[79] <= 0
 mccormick2[80]: - x[80] + r[80] <= 0
 mccormick2[81]: - x[81] + r[81] <= 0
 mccormick2[82]: - x[82] + r[82] <= 0
 mccormick2[83]: - x[83] + r[83] <= 0
 mccormick2[84]: - x[84] + r[84] <= 0
 mccormick2[85]: - x[85] + r[85] <= 0
 mccormick2[86]: - x[86] + r[86] <= 0
 mccormick2[87]: - x[87] + r[87] <= 0
 mccormick2[88]: - x[88] + r[88] <= 0
 mccormick2[89]: - x[89] + r[89] <= 0
 mccormick2[90]: - x[90] + r[90] <= 0
 mccormick2[91]: - x[91] + r[91] <= 0
 mccormick2[92]: - x[92] + r[92] <= 0
 mccormick2[93]: - x[93] + r[93] <= 0
 mccormick2[94]: - x[94] + r[94] <= 0
 mccormick2[95]: - x[95] + r[95] <= 0
 mccormick2[96]: - x[96] + r[96] <= 0
 mccormick2[97]: - x[97] + r[97] <= 0
 mccormick2[98]: - x[98] + r[98] <= 0
 mccormick2[99]: - x[99] + r[99] <= 0
 mccormick2[100]: - x[100] + r[100] <= 0
 mccormick2[101]: - x[101] + r[101] <= 0
 mccormick2[102]: - x[102] + r[102] <= 0
 mccormick2[103]: - x[103] + r[103] <= 0
 mccormick2[104]: - x[104] + r[104] <= 0
 mccormick2[105]: - x[105] + r[105] <= 0
 mccormick2[106]: - x[106] + r[106] <= 0
 mccormick2[107]: - x[107] + r[107] <= 0
 mccormick2[108]: - x[108] + r[108] <= 0
 mccormick2[109]: - x[109] + r[109] <= 0
 mccormick2[110]: - x[110] + r[110] <= 0
 mccormick2[111]: - x[111] + r[111] <= 0
 mccormick2[112]: - x[112] + r[112] <= 0
 mccormick2[113]: - x[113] + r[113] <= 0
 mccormick2[114]: - x[114] + r[114] <= 0
 mccormick2[115]: - x[115] + r[115] <= 0
 mccormick2[116]: - x[116] + r[116] <= 0
 mccormick2[117]: - x[117] + r[117] <= 0
 mccormick2[118]: - x[118] + r[118] <= 0
 mccormick2[119]: - x[119] + r[119] <= 0
 mccormick3[0]: x[0] + u[0] - r[0] <= 1
 mccormick3[1]: x[1] + u[1] - r[1] <= 1
 mccormick3[2]: x[2] + u[2] - r[2] <= 1
 mccormick3[3]: x[3] + u[3] - r[3] <= 1
 mccormick3[4]: x[4] + u[4] - r[4] <= 1
 mccormick3[5]: x[5] + u[5] - r[5] <= 1
 mccormick3[6]: x[6] + u[6] - r[6] <= 1
 mccormick3[7]: x[7] + u[7] - r[7] <= 1
 mccormick3[8]: x[8] + u[8] - r[8] <= 1
 mccormick3[9]: x[9] + u[9] - r[9] <= 1
 mccormick3[10]: x[10] + u[10] - r[10] <= 1
 mccormick3[11]: x[11] + u[11] - r[11] <= 1
 mccormick3[12]: x[12] + u[12] - r[12] <= 1
 mccormick3[13]: x[13] + u[13] - r[13] <= 1
 mccormick3[14]: x[14] + u[14] - r[14] <= 1
 mccormick3[15]: x[15] + u[15] - r[15] <= 1
 mccormick3[16]: x[16] + u[16] - r[16] <= 1
 mccormick3[17]: x[17] + u[17] - r[17] <= 1
 mccormick3[18]: x[18] + u[18] - r[18] <= 1
 mccormick3[19]: x[19] + u[19] - r[19] <= 1
 mccormick3[20]: x[20] + u[20] - r[20] <= 1
 mccormick3[21]: x[21] + u[21] - r[21] <= 1
 mccormick3[22]: x[22] + u[22] - r[22] <= 1
 mccormick3[23]: x[23] + u[23] - r[23] <= 1
 mccormick3[24]: x[24] + u[24] - r[24] <= 1
 mccormick3[25]: x[25] + u[25] - r[25] <= 1
 mccormick3[26]: x[26] + u[26] - r[26] <= 1
 mccormick3[27]: x[27] + u[27] - r[27] <= 1
 mccormick3[28]: x[28] + u[28] - r[28] <= 1
 mccormick3[29]: x[29] + u[29] - r[29] <= 1
 mccormick3[30]: x[30] + u[30] - r[30] <= 1
 mccormick3[31]: x[31] + u[31] - r[31] <= 1
 mccormick3[32]: x[32] + u[32] - r[32] <= 1
 mccormick3[33]: x[33] + u[33] - r[33] <= 1
 mccormick3[34]: x[34] + u[34] - r[34] <= 1
 mccormick3[35]: x[35] + u[35] - r[35] <= 1
 mccormick3[36]: x[36] + u[36] - r[36] <= 1
 mccormick3[37]: x[37] + u[37] - r[37] <= 1
 mccormick3[38]: x[38] + u[38] - r[38] <= 1
 mccormick3[39]: x[39] + u[39] - r[39] <= 1
 mccormick3[40]: x[40] + u[40] - r[40] <= 1
 mccormick3[41]: x[41] + u[41] - r[41] <= 1
 mccormick3[42]: x[42] + u[42] - r[42] <= 1
 mccormick3[43]: x[43] + u[43] - r[43] <= 1
 mccormick3[44]: x[44] + u[44] - r[44] <= 1
 mccormick3[45]: x[45] + u[45] - r[45] <= 1
 mccormick3[46]: x[46] + u[46] - r[46] <= 1
 mccormick3[47]: x[47] + u[47] - r[47] <= 1
 mccormick3[48]: x[48] + u[48] - r[48] <= 1
 mccormick3[49]: x[49] + u[49] - r[49] <= 1
 mccormick3[50]: x[50] + u[50] - r[50] <= 1
 mccormick3[51]: x[51] + u[51] - r[51] <= 1
 mccormick3[52]: x[52] + u[52] - r[52] <= 1
 mccormick3[53]: x[53] + u[53] - r[53] <= 1
 mccormick3[54]: x[54] + u[54] - r[54] <= 1
 mccormick3[55]: x[55] + u[55] - r[55] <= 1
 mccormick3[56]: x[56] + u[56] - r[56] <= 1
 mccormick3[57]: x[57] + u[57] - r[57] <= 1
 mccormick3[58]: x[58] + u[58] - r[58] <= 1
 mccormick3[59]: x[59] + u[59] - r[59] <= 1
 mccormick3[60]: x[60] + u[60] - r[60] <= 1
 mccormick3[61]: x[61] + u[61] - r[61] <= 1
 mccormick3[62]: x[62] + u[62] - r[62] <= 1
 mccormick3[63]: x[63] + u[63] - r[63] <= 1
 mccormick3[64]: x[64] + u[64] - r[64] <= 1
 mccormick3[65]: x[65] + u[65] - r[65] <= 1
 mccormick3[66]: x[66] + u[66] - r[66] <= 1
 mccormick3[67]: x[67] + u[67] - r[67] <= 1
 mccormick3[68]: x[68] + u[68] - r[68] <= 1
 mccormick3[69]: x[69] + u[69] - r[69] <= 1
 mccormick3[70]: x[70] + u[70] - r[70] <= 1
 mccormick3[71]: x[71] + u[71] - r[71] <= 1
 mccormick3[72]: x[72] + u[72] - r[72] <= 1
 mccormick3[73]: x[73] + u[73] - r[73] <= 1
 mccormick3[74]: x[74] + u[74] - r[74] <= 1
 mccormick3[75]: x[75] + u[75] - r[75] <= 1
 mccormick3[76]: x[76] + u[76] - r[76] <= 1
 mccormick3[77]: x[77] + u[77] - r[77] <= 1
 mccormick3[78]: x[78] + u[78] - r[78] <= 1
 mccormick3[79]: x[79] + u[79] - r[79] <= 1
 mccormick3[80]: x[80] + u[80] - r[80] <= 1
 mccormick3[81]: x[81] + u[81] - r[81] <= 1
 mccormick3[82]: x[82] + u[82] - r[82] <= 1
 mccormick3[83]: x[83] + u[83] - r[83] <= 1
 mccormick3[84]: x[84] + u[84] - r[84] <= 1
 mccormick3[85]: x[85] + u[85] - r[85] <= 1
 mccormick3[86]: x[86] + u[86] - r[86] <= 1
 mccormick3[87]: x[87] + u[87] - r[87] <= 1
 mccormick3[88]: x[88] + u[88] - r[88] <= 1
 mccormick3[89]: x[89] + u[89] - r[89] <= 1
 mccormick3[90]: x[90] + u[90] - r[90] <= 1
 mccormick3[91]: x[91] + u[91] - r[91] <= 1
 mccormick3[92]: x[92] + u[92] - r[92] <= 1
 mccormick3[93]: x[93] + u[93] - r[93] <= 1
 mccormick3[94]: x[94] + u[94] - r[94] <= 1
 mccormick3[95]: x[95] + u[95] - r[95] <= 1
 mccormick3[96]: x[96] + u[96] - r[96] <= 1
 mccormick3[97]: x[97] + u[97] - r[97] <= 1
 mccormick3[98]: x[98] + u[98] - r[98] <= 1
 mccormick3[99]: x[99] + u[99] - r[99] <= 1
 mccormick3[100]: x[100] + u[100] - r[100] <= 1
 mccormick3[101]: x[101] + u[101] - r[101] <= 1
 mccormick3[102]: x[102] + u[102] - r[102] <= 1
 mccormick3[103]: x[103] + u[103] - r[103] <= 1
 mccormick3[104]: x[104] + u[104] - r[104] <= 1
 mccormick3[105]: x[105] + u[105] - r[105] <= 1
 mccormick3[106]: x[106] + u[106] - r[106] <= 1
 mccormick3[107]: x[107] + u[107] - r[107] <= 1
 mccormick3[108]: x[108] + u[108] - r[108] <= 1
 mccormick3[109]: x[109] + u[109] - r[109] <= 1
 mccormick3[110]: x[110] + u[110] - r[110] <= 1
 mccormick3[111]: x[111] + u[111] - r[111] <= 1
 mccormick3[112]: x[112] + u[112] - r[112] <= 1
 mccormick3[113]: x[113] + u[113] - r[113] <= 1
 mccormick3[114]: x[114] + u[114] - r[114] <= 1
 mccormick3[115]: x[115] + u[115] - r[115] <= 1
 mccormick3[116]: x[116] + u[116] - r[116] <= 1
 mccormick3[117]: x[117] + u[117] - r[117] <= 1
 mccormick3[118]: x[118] + u[118] - r[118] <= 1
 mccormick3[119]: x[119] + u[119] - r[119] <= 1
Bounds
Binaries
 x[0] x[1] x[2] x[3] x[4] x[5] x[6] x[7] x[8] x[9] x[10] x[11] x[12] x[13]
 x[14] x[15] x[16] x[17] x[18] x[19] x[20] x[21] x[22] x[23] x[24] x[25]
 x[26] x[27] x[28] x[29] x[30] x[31] x[32] x[33] x[34] x[35] x[36] x[37]
 x[38] x[39] x[40] x[41] x[42] x[43] x[44] x[45] x[46] x[47] x[48] x[49]
 x[50] x[51] x[52] x[53] x[54] x[55] x[56] x[57] x[58] x[59] x[60] x[61]
 x[62] x[63] x[64] x[65] x[66] x[67] x[68] x[69] x[70] x[71] x[72] x[73]
 x[74] x[75] x[76] x[77] x[78] x[79] x[80] x[81] x[82] x[83] x[84] x[85]
 x[86] x[87] x[88] x[89] x[90] x[91] x[92] x[93] x[94] x[95] x[96] x[97]
 x[98] x[99] x[100] x[101] x[102] x[103] x[104] x[105] x[106] x[107] x[108]
 x[109] x[110] x[111] x[112] x[113] x[114] x[115] x[116] x[117] x[118]
 x[119] u[0] u[1] u[2] u[3] u[4] u[5] u[6] u[7] u[8] u[9] u[10] u[11] u[12]
 u[13] u[14] u[15] u[16] u[17] u[18] u[19] u[20] u[21] u[22] u[23] u[24]
 u[25] u[26] u[27] u[28] u[29] u[30] u[31] u[32] u[33] u[34] u[35] u[36]
 u[37] u[38] u[39] u[40] u[41] u[42] u[43] u[44] u[45] u[46] u[47] u[48]
 u[49] u[50] u[51] u[52] u[53] u[54] u[55] u[56] u[57] u[58] u[59] u[60]
 u[61] u[62] u[63] u[64] u[65] u[66] u[67] u[68] u[69] u[70] u[71] u[72]
 u[73] u[74] u[75] u[76] u[77] u[78] u[79] u[80] u[81] u[82] u[83] u[84]
 u[85] u[86] u[87] u[88] u[89] u[90] u[91] u[92] u[93] u[94] u[95] u[96]
 u[97] u[98] u[99] u[100] u[101] u[102] u[103] u[104] u[105] u[106] u[107]
 u[108] u[109] u[110] u[111] u[112] u[113] u[114] u[115] u[116] u[117]
 u[118] u[119] r[0] r[1] r[2] r[3] r[4] r[5] r[6] r[7] r[8] r[9] r[10]
 r[11] r[12] r[13] r[14] r[15] r[16] r[17] r[18] r[19] r[20] r[21] r[22]
 r[23] r[24] r[25] r[26] r[27] r[28] r[29] r[30] r[31] r[32] r[33] r[34]
 r[35] r[36] r[37] r[38] r[39] r[40] r[41] r[42] r[43] r[44] r[45] r[46]
 r[47] r[48] r[49] r[50] r[51] r[52] r[53] r[54] r[55] r[56] r[57] r[58]
 r[59] r[60] r[61] r[62] r[63] r[64] r[65] r[66] r[67] r[68] r[69] r[70]
 r[71] r[72] r[73] r[74] r[75] r[76] r[77] r[78] r[79] r[80] r[81] r[82]
 r[83] r[84] r[85] r[86] r[87] r[88] r[89] r[90] r[91] r[92] r[93] r[94]
 r[95] r[96] r[97] r[98] r[99] r[100] r[101] r[102] r[103] r[104] r[105]
 r[106] r[107] r[108] r[109] r[110] r[111] r[112] r[113] r[114] r[115]
 r[116] r[117] r[118] r[119]
End
