instances/knapsack/discrete_knapsack_uncertainty/knapsack_120_6.kp
58516
120
580

9 0.9 83
9 0.9 84
3 0.3 5
88 8.8 21
61 6.1 11
55 5.5 86
50 5.0 39
1 0.1 41
18 1.8 52
15 1.5 28
37 3.7 76
80 8.0 28
49 4.9 8
53 5.3 87
22 2.2 20
22 2.2 21
90 9.0 23
85 8.5 39
62 6.2 68
91 9.1 27
78 7.8 43
77 7.7 36
73 7.3 81
48 4.8 37
18 1.8 98
85 8.5 4
83 8.3 37
33 3.3 69
67 6.7 7
36 3.6 38
23 2.3 2
41 4.1 37
21 2.1 81
90 9.0 72
33 3.3 21
70 7.0 42
81 8.1 74
98 9.8 28
1 0.1 88
8 0.8 81
24 2.4 93
35 3.5 63
51 5.1 19
79 7.9 32
36 3.6 32
40 4.0 64
79 7.9 86
39 3.9 2
32 3.2 94
69 6.9 99
56 5.6 80
77 7.7 36
26 2.6 20
49 4.9 26
70 7.0 97
41 4.1 79
78 7.8 32
68 6.8 17
5 0.5 5
31 3.1 76
34 3.4 69
88 8.8 67
53 5.3 19
72 7.2 47
57 5.7 80
41 4.1 14
34 3.4 46
76 7.6 55
53 5.3 10
75 7.5 55
27 2.7 22
71 7.1 20
3 0.3 50
72 7.2 79
97 9.7 8
22 2.2 47
40 4.0 23
100 10.0 6
18 1.8 69
32 3.2 37
35 3.5 12
15 1.5 83
88 8.8 87
11 1.1 51
39 3.9 46
39 3.9 22
61 6.1 7
17 1.7 84
79 7.9 5
36 3.6 76
22 2.2 95
94 9.4 11
26 2.6 79
13 1.3 98
93 9.3 21
10 1.0 28
46 4.6 42
58 5.8 21
17 1.7 66
89 8.9 42
82 8.2 38
29 2.9 59
55 5.5 76
53 5.3 55
90 9.0 16
47 4.7 40
40 4.0 87
36 3.6 62
80 8.0 87
2 0.2 90
64 6.4 79
60 6.0 31
46 4.6 99
78 7.8 97
62 6.2 63
80 8.0 18
84 8.4 64
50 5.0 46
90 9.0 91
62 6.2 36

72651
591

[4.848098129490668 3.6928255690872787 3.0718983995700873 1.9548309232599153 4.601385116177327 4.528997425119218 4.368793820522943 2.601739174520959 2.3158301437542432 3.6391602621214947 2.1759117335651896 0.982972523695806 3.3981499002536575 1.3212358774545827 1.9996555825890863 1.0156769927724654 4.19869898476642 0.020524378074001703 3.7676356108131515 1.0186718844828901 4.541782016002409 2.9640991906585525 0.676018117528106 0.05255103754261136 0.8733552886112963 2.9885095714176813 2.8267420668754553 3.2656567675608 4.798659726009543 2.500528475735206 2.339900848873683 3.8269682463688293 2.656368575093678 2.751565212343491 2.550856986464641 4.024348833190534 3.474562484294009 3.5659513236180493 1.5972874726831578 2.159652800184428 2.639263393659315 2.5844764976159715 0.18566361240887413 0.3900899912529717 2.6770426315463256 0.512713098563447 0.618329328286373 4.2234566840985295 0.8217807990191954 3.909386637558983 3.252897221377277 2.5360778730768048 3.6708720448343595 2.4321716230033794 3.1046700728582026 2.1821584388012814 2.6792481048197834 4.595059079693417 0.50261571938012 3.707829232563614 0.396146737824582 2.3427890266571283 0.14441499818251527 3.0090520699121495 0.31267012345654766 4.658997957724876 3.3226543329827116 4.127898510149008 3.5060346140272163 0.6007220503889361 2.0378081079315686 1.779279977828939 3.173607300621735 1.9780889112865707 2.102272597817379 0.7445716333911632 3.412614185000995 1.9920702398947259 1.3621186818846311 4.149459346625233 2.0982350863027333 3.21079704631229 1.5080688499648438 4.282454533156125 1.1587501603088906 2.779454438073291 3.4030270619016303 1.6459611564274588 1.5268490515282394 1.281461328714932 1.9579068051357955 2.2756421446949346 1.8425986578754392 4.2049571016416945 3.648877845380468 0.6617238162320763 3.7361932107713196 3.4662834610034454 4.136590104817859 0.722806145765927 4.357707316558494 2.74592392524586 0.14064292376479173 0.09226967841220561 0.4282059818951263 1.0368612882252588 3.487001381433757 1.0121497373673745 2.34771551394134 2.4574582036711896 2.5658695580038446 0.6789010914569064 4.717990387698191 0.889932122668534 4.024064851860062 0.3112518690999589 2.9779983007178 2.032796535415542 4.194746347242083 1.869640962063347]

[6 23 13 90 59 12 100 82 60 41 66 62 39 87 47 59 72 19 68 1 72 54 99 85 55 91 85 14 20 6 88 6 34 24 87 4 55 75 7 9 50 80 73 24 42 97 64 84 30 31 77 75 20 83 71 82 72 33 51 97 79 77 54 89 54 43 35 17 19 8 40 4 93 6 78 83 57 50 7 69 8 92 77 16 100 88 66 3 73 42 51 3 35 58 47 16 72 43 15 3 44 23 9 99 36 93 90 37 29 96 49 94 64 12 96 85 62 16 44 51]
